1111111111111111111111111111111
1000100000001010001000000010001
1110101111111010111111101111101
1000000000101010000010000010001
1111111011101010111110111110101
1010100000100000001000001010101
1010111011101011101010101011101
1000100000101010100010101010001
1110111011111010111011111011101
1000000000101000001000100000001
1111101110101011111110111011111
1010000010000000000010101000001
1010111010111011111111101011111
1000100010001010000010100000001
1111101011101111101110111011111
1000001010000000000000101000101
1011101011101011101111101011101
1010001010001000100000001000001
1011101111101011101110111011111
1000100010101000100010000000101
1111101110101111101110111011101
1000001000001010001000001000001
1111111110111011101010111011101
1000000000000010001010001000101
1110111011101010111110111011101
1010001010001010100000101000101
1010111010111110101010101011101
1000001010000010101010100010101
1110111010111111101011101110111
1000100010000000101010000000001
1111111111111111111111111111111
